4,1,7,1,1,2,2,3,3,5,8,4,9,4,5,4,5,5;1,1,8,1,9,1,6,2,4,2,10,3,7,2,7,3,2,5,9,5;10,1,2,2,3,3,10,2,9,2,1,3,1,4,8,5,4,5;6,1,5,2,5,3,3,4,8,3,9,3,2,4,10,4,4,4,1,5;2,1,5,1,3,1,3,2,8,2,6,3,6,4,4,3,6,5,10,5,7,4,7,5;
